[ti. 04. april 14:06:54 +0200 2023]  ./input/alternate_g_np/50-1-1.gcc
Set parameter Username
Academic license - for non-commercial use only - expires 2024-03-28
Set parameter TimeLimit to value 1800
Set parameter PreCrush to value 1
Set parameter LazyConstraints to value 1
Gurobi Optimizer version 10.0.1 build v10.0.1rc0 (linux64)

CPU model: AMD Ryzen 9 5950X 16-Core Processor, instruction set [SSE2|AVX|AVX2]
Thread count: 16 physical cores, 32 logical processors, using up to 32 threads

Optimize a model with 52 rows, 150 columns and 350 nonzeros
Model fingerprint: 0x761b903c
Variable types: 0 continuous, 150 integer (150 binary)
Coefficient statistics:
  Matrix range     [1e+00, 1e+00]
  Objective range  [2e+00, 1e+02]
  Bounds range     [1e+00, 1e+00]
  RHS range        [1e+00, 1e+00]
Presolve time: 0.00s
Presolved: 52 rows, 150 columns, 350 nonzeros
Variable types: 0 continuous, 150 integer (150 binary)

Root relaxation: objective 2.499000e+03, 2 iterations, 0.00 seconds (0.00 work units)

    Nodes    |    Current Node    |     Objective Bounds      |     Work
 Expl Unexpl |  Obj  Depth IntInf | Incumbent    BestBd   Gap | It/Node Time

     0     0 2499.00000    0    2          - 2499.00000      -     -    0s
     0     0 2355.00000    0    -          - 2355.00000      -     -    0s
     0     0 2280.00000    0    -          - 2280.00000      -     -    0s
     0     0 2280.00000    0    -          - 2280.00000      -     -    0s
     0     0 2189.00000    0    -          - 2189.00000      -     -    0s
     0     0 2174.00000    0   12          - 2174.00000      -     -    0s
     0     0 1053.44444    0    9          - 1053.44444      -     -    0s
     0     0  994.89189    0   22          -  994.89189      -     -    0s
     0     0  855.31429    0   23          -  855.31429      -     -    0s
     0     0  807.16600    0   20          -  807.16600      -     -    0s
     0     0  749.11806    0   25          -  749.11806      -     -    0s
     0     0  706.94767    0   31          -  706.94767      -     -    0s
     0     0  691.04202    0   29          -  691.04202      -     -    0s
     0     0  665.15756    0   29          -  665.15756      -     -    0s
     0     0  650.04263    0   31          -  650.04263      -     -    0s
     0     0  641.90189    0   35          -  641.90189      -     -    0s
     0     0  633.98989    0   36          -  633.98989      -     -    0s
     0     0  626.52886    0   34          -  626.52886      -     -    0s
     0     0  622.00204    0   37          -  622.00204      -     -    0s
     0     0  618.90637    0   38          -  618.90637      -     -    0s
     0     0  614.61538    0   29          -  614.61538      -     -    0s
     0     0  611.04915    0   40          -  611.04915      -     -    0s
     0     0  607.97839    0   41          -  607.97839      -     -    0s
     0     0  605.46813    0   42          -  605.46813      -     -    0s
     0     0  605.00000    0   36          -  605.00000      -     -    0s
H    0     0                     605.0000000  605.00000  0.00%     -    0s

Cutting planes:
  User: 42
  MIR: 2
  Lazy constraints: 39

Explored 1 nodes (482 simplex iterations) in 0.02 seconds (0.01 work units)
Thread count was 32 (of 32 available processors)

Solution count 1: 605 

Optimal solution found (tolerance 1.00e-04)
Best objective 6.050000000000e+02, best bound 6.050000000000e+02, gap 0.0000%

User-callback calls 214, time in user-callback 0.00 sec
Minimal separator inequalities added: 91
Indegree inequalities added: 57
Passed solution check
[ti. 04. april 14:06:54 +0200 2023]  done

